c User generated cnf file
p cnf 14 42
5 -13 13 0 
3 -4 5 0 
10 4 -6 0 
3 10 -1 0 
13 -9 13 0 
14 -14 9 0 
1 12 -10 0 
10 9 -2 0 
13 1 -14 0 
8 8 -3 0 
2 8 -14 0 
11 6 -9 0 
7 4 -12 0 
10 7 -1 0 
2 8 -8 0 
13 -13 4 0 
13 2 -14 0 
14 10 -7 0 
5 6 -14 0 
11 -4 2 0 
12 3 -8 0 
13 9 -14 0 
11 -12 11 0 
12 -6 6 0 
8 14 -7 0 
7 -14 14 0 
1 -3 4 0 
6 10 -8 0 
4 -11 2 0 
6 13 -10 0 
7 -10 1 0 
5 8 -3 0 
2 -5 12 0 
3 13 -9 0 
8 7 -8 0 
3 13 -11 0 
14 -4 13 0 
8 -9 7 0 
5 -13 3 0 
7 6 -12 0 
3 -7 4 0 
3 -5 4 0 
